
Gurobi 12.0.1 (win64, C++) logging started Tue Apr 22 09:15:37 2025

Set parameter Username
Set parameter LicenseID to value 2618661
Academic license - for non-commercial use only - expires 2026-02-05
Set parameter Threads to value 8
Set parameter LazyConstraints to value 1
Set parameter PreCrush to value 1
Set parameter Seed to value 10
Set parameter Cuts to value -1
Set parameter TimeLimit to value 28800
Set parameter NumericFocus to value 0
Set parameter SolutionLimit to value 10000
Gurobi Optimizer version 12.0.1 build v12.0.1rc0 (win64 - Windows Server 2022.0 (20348.2))

CPU model: AMD EPYC 7513 32-Core Processor, instruction set [SSE2|AVX|AVX2]
Thread count: 18 physical cores, 18 logical processors, using up to 8 threads

Non-default parameters:
SolutionLimit  10000
TimeLimit  28800
PreCrush  1
Seed  10
Threads  8
LazyConstraints  1

Optimize a model with 466 rows, 900 columns and 2610 nonzeros
Model fingerprint: 0x1db7d228
Variable types: 0 continuous, 900 integer (900 binary)
Coefficient statistics:
  Matrix range     [1e+00, 1e+00]
  Objective range  [1e+00, 1e+02]
  Bounds range     [1e+00, 1e+00]
  RHS range        [1e+00, 5e+00]

Warning: Completing partial solution with 834 unfixed non-continuous variables out of 900
User MIP start produced solution with objective 662.753 (0.01s)
Loaded user MIP start with objective 662.753

Presolve removed 2 rows and 32 columns
Presolve time: 0.01s
Presolved: 464 rows, 868 columns, 2517 nonzeros
Variable types: 0 continuous, 868 integer (868 binary)

Root relaxation: objective 4.059125e+02, 87 iterations, 0.00 seconds (0.00 work units)

    Nodes    |    Current Node    |     Objective Bounds      |     Work
 Expl Unexpl |  Obj  Depth IntInf | Incumbent    BestBd   Gap | It/Node Time

     0     0  405.91253    0   16  662.75281  405.91253  38.8%     -    0s
     0     0  476.79290    0   34  662.75281  476.79290  28.1%     -    0s
     0     0  519.36774    0    -  662.75281  519.36774  21.6%     -    0s
     0     0  527.67534    0    8  662.75281  527.67534  20.4%     -    0s
     0     0  557.70016    0    -  662.75281  557.70016  15.9%     -    0s
     0     0  558.76282    0    -  662.75281  558.76282  15.7%     -    0s
     0     0  561.27984    0    -  662.75281  561.27984  15.3%     -    0s
     0     0  571.46900    0   26  662.75281  571.46900  13.8%     -    0s
     0     0  576.59278    0   16  662.75281  576.59278  13.0%     -    0s
     0     0  585.16322    0   16  662.75281  585.16322  11.7%     -    0s
     0     0  592.93711    0   19  662.75281  592.93711  10.5%     -    0s
     0     0  593.21278    0   16  662.75281  593.21278  10.5%     -    0s
     0     0  593.66521    0   33  662.75281  593.66521  10.4%     -    0s
     0     2  593.66521    0   31  662.75281  593.66521  10.4%     -    0s
*    3     2               1     596.7594700  596.75947  0.00%  27.0    0s

Cutting planes:
  MIR: 1
  Zero half: 2
  Lazy constraints: 187

Explored 5 nodes (483 simplex iterations) in 0.52 seconds (0.18 work units)
Thread count was 8 (of 18 available processors)

Solution count 2: 596.759 662.753 

Optimal solution found (tolerance 1.00e-04)
Best objective 5.967594699754e+02, best bound 5.967594699754e+02, gap 0.0000%

User-callback calls 416, time in user-callback 0.13 sec
### START EXACT APPROACH ###
ProblemVariant: 6
### START PREPROCESSING ###
## Start infeasible path procedure ## 
Deleted arcs: 2
Infeasible tail paths: 0
Infeasible 2-node combinations: 1
Deleted arcs: 2
Infeasible tail paths: 0
Infeasible 2-node combinations: 1
## Start start solution procedure ##
Start solution with 5 Vehicles and total costs 662.753 in 0.0033045 s.
### END PREPROCESSING ###
Route 0 0-6-24-25-29-27-28-26-0 : weight util 0.666667 | volume util 0.999400 | 
Route 1 0-18-10-11-12-8-23-0 : weight util 0.461111 | volume util 0.987867 | 
Route 2 0-20-0 : weight util 0.066667 | volume util 0.132844 | 
Route 3 0-21-14-9-17-7-13-16-15-0 : weight util 0.677778 | volume util 0.942489 | 
Route 4 0-22-2-5-1-4-3-19-0 : weight util 0.961111 | volume util 0.957156 | 
